Version identifier: 20.1.0.0 | 2020-11-10 | 9bedb6d68
Tried aggregator 2 times.
MIP Presolve eliminated 1281 rows and 717 columns.
MIP Presolve modified 3138 coefficients.
Aggregator did 136 substitutions.
Reduced MIP has 1792 rows, 1362 columns, and 5882 nonzeros.
Reduced MIP has 221 binaries, 1141 generals, 0 SOSs, and 0 indicators.
Presolve time = 0.02 sec. (7.33 ticks)
Probing fixed 40 vars, tightened 433 bounds.
Probing time = 0.00 sec. (1.22 ticks)
Tried aggregator 1 time.
Detecting symmetries...
MIP Presolve eliminated 780 rows and 40 columns.
MIP Presolve modified 75 coefficients.
Reduced MIP has 1012 rows, 1322 columns, and 3302 nonzeros.
Reduced MIP has 305 binaries, 1017 generals, 0 SOSs, and 0 indicators.
Presolve time = 0.01 sec. (3.63 ticks)
Probing time = 0.00 sec. (0.24 ticks)
Clique table members: 5.
MIP emphasis: balance optimality and feasibility.
MIP search method: dynamic search.
Parallel mode: deterministic, using up to 24 threads.
Root relaxation solution time = 0.01 sec. (2.81 ticks)

        Nodes                                         Cuts/
   Node  Left     Objective  IInf  Best Integer    Best Bound    ItCnt     Gap

*     0+    0                           48.0000        0.0000           100.00%
      0     0        0.0000    48       48.0000        0.0000      327  100.00%
*     0+    0                           11.0000        0.0000           100.00%
      0     0        0.0000    45       11.0000      Cuts: 25      366  100.00%
      0     0        0.0000    18       11.0000     Cuts: 115      513  100.00%
      0     0        0.7500    44       11.0000      Cuts: 23      552   93.18%
      0     0        0.7500    44       11.0000      Cuts: 18      572   93.18%
      0     0        0.8108    68       11.0000      Cuts: 24      598   92.63%
      0     0        0.8571    39       11.0000      Cuts: 23      611   92.21%
      0     0        1.0000    72       11.0000      Cuts: 19      636   90.91%
      0     0        1.0000    31       11.0000      Cuts: 21      886   90.91%
      0     0        1.1250    86       11.0000      Cuts: 55      948   89.77%
*     0+    0                            8.0000        1.1250            85.94%
      0     0        cutoff              8.0000        8.0000     1050    0.00%
Elapsed time = 0.94 sec. (102.37 ticks, tree = 0.01 MB, solutions = 3)

Implied bound cuts applied:  36
Flow cuts applied:  5
Mixed integer rounding cuts applied:  11
Zero-half cuts applied:  137
Lift and project cuts applied:  5
Gomory fractional cuts applied:  20

Root node processing (before b&c):
  Real time             =    0.94 sec. (102.49 ticks)
Parallel b&c, 24 threads:
  Real time             =    0.00 sec. (0.00 ticks)
  Sync time (average)   =    0.00 sec.
  Wait time (average)   =    0.00 sec.
                          ------------
Total (root+branch&cut) =    0.94 sec. (102.49 ticks)

Solution status = Optimal
Solution LB = 8
Solution UB = 8
Runtime = 0.941973 seconds
	Command being timed: "/home/min/git_repos/CS598MEBProject/CNT-ILP/build/cnt -s 2 ./output/k8_n20/simC_c1_k8_n20_u2_s1_del02.input-right.cnp"
	User time (seconds): 15.35
	System time (seconds): 0.10
	Percent of CPU this job got: 1598%
	Elapsed (wall clock) time (h:mm:ss or m:ss): 0:00.96
	Average shared text size (kbytes): 0
	Average unshared data size (kbytes): 0
	Average stack size (kbytes): 0
	Average total size (kbytes): 0
	Maximum resident set size (kbytes): 98760
	Average resident set size (kbytes): 0
	Major (requiring I/O) page faults: 0
	Minor (reclaiming a frame) page faults: 22011
	Voluntary context switches: 6524
	Involuntary context switches: 2263
	Swaps: 0
	File system inputs: 0
	File system outputs: 16
	Socket messages sent: 0
	Socket messages received: 0
	Signals delivered: 0
	Page size (bytes): 4096
	Exit status: 0
